p cnf 37 32
-86 -619
-333 -2231
-333 -3612
-619 -4221
-651 -989
-651 -2879
-651 -4183
-802 -1969
-843 -1122
-999 -4221
-1071 -2877
-1122 -1249
-1173 -2227
-1173 -3000
-1939 -2231
-1939 -2457
-1939 -2666
-1969 -2666
-1969 -3612
-2167 -2231
-2204 -2511
-2204 -3834
-2227 -3827
-2231 -3827
-2751 -3000
-2808 -3519
-2808 -3827
-2829 -4317
-2877 -4317
-2877 -4326
-2877 -4760
-4246 -4326

